p tdp 54 105
12 54
1 9
11 26
2 9
14 48
6 32
17 39
24 30
2 50
20 47
15 19
13 53
37 43
39 40
29 35
1 39
32 47
29 33
46 48
37 54
18 44
41 46
8 42
21 25
15 51
3 42
33 34
7 39
11 21
14 27
14 52
45 53
4 5
25 29
5 28
1 5
30 53
13 15
10 32
12 36
22 37
16 23
2 31
11 42
18 37
3 12
17 49
38 47
14 16
22 40
41 49
32 53
10 11
3 4
10 47
22 23
3 53
12 30
11 15
17 47
27 34
44 45
6 19
40 44
16 54
18 31
36 47
22 43
7 41
4 17
30 42
16 46
45 50
20 31
9 46
10 27
4 7
23 27
19 38
2 33
2 23
22 30
14 30
1 6
29 53
6 27
1 8
37 44
31 37
31 47
28 40
17 37
24 53
1 14
14 17
2 43
10 29
3 32
18 33
1 42
6 33
15 18
36 49
13 44
32 42
